etc/upTests/__issues/123-setOfFuncSetNested3/0004.eprime.solution
language ESSENCE' 1.0
$ minion Nodes: 35
$ minion TotalTime: 0.001284
$ Savile Row TotalTime: 0.339
letting fs_SetExplicit_SetExplicit_Matrix1D_SetExplicit_SetOccurrence be [[[[[false, false, false, false, false, false, false, false, false, false, false, false, false, false, true, false, true, true;int(3..20)], 
[false, false, false, false, false, false, false, false, false, false, false, false, false, false, false, true, true, true;int(3..20)];int(1..2)], 
[[false, false, false, false, false, false, false, false, false, false, false, false, false, false, true, false, true, true;int(3..20)], 
[false, false, false, false, false, false, false, false, false, false, false, false, false, false, false, true, true, true;int(3..20)];int(1..2)];int(1..2)];int(1..1)];int(1..1)]
